benchmark/instancefiles/cbf/rsyn0805h.cbf
# Generated by ConicBenchmarkUtilities.jl
VER
2

OBJSENSE
MIN

VAR
312 1
F 312

INT
37
11
12
13
14
15
16
17
18
19
20
21
22
23
24
25
26
27
28
29
30
31
32
33
34
40
41
42
43
44
185
186
187
188
189
190
191
192

CON
789 783
L= 1
L= 1
L= 1
L= 1
L= 1
L= 1
L= 1
L= 1
L= 1
L= 1
L= 1
L= 1
L= 1
L= 1
L= 1
L= 1
L= 1
L= 1
L= 1
L= 1
L= 1
L= 1
L= 1
L= 1
L= 1
L= 1
L= 1
L= 1
L= 1
L= 1
L= 1
L= 1
L= 1
L= 1
L= 1
L= 1
L+ 1
L+ 1
L+ 1
L+ 1
L+ 1
L+ 1
L+ 1
L+ 1
L+ 1
L+ 1
L+ 1
L= 1
L= 1
L= 1
L= 1
L= 1
L= 1
L= 1
L= 1
L= 1
L= 1
L= 1
L= 1
L= 1
L= 1
L= 1
L= 1
L= 1
L= 1
L= 1
L= 1
L+ 1
L+ 1
L+ 1
L= 1
L= 1
L= 1
L= 1
L= 1
L= 1
L= 1
L= 1
L= 1
L= 1
L= 1
L= 1
L= 1
L= 1
L= 1
L= 1
L= 1
L= 1
L+ 1
L+ 1
L+ 1
L+ 1
L+ 1
L+ 1
L+ 1
L+ 1
L+ 1
L+ 1
L+ 1
L+ 1
L+ 1
L+ 1
L+ 1
L+ 1
L+ 1
L+ 1
L+ 1
L+ 1
L+ 1
L+ 1
L+ 1
L+ 1
L+ 1
L+ 1
L+ 1
L+ 1
L+ 1
L+ 1
L+ 1
L+ 1
L+ 1
L+ 1
L+ 1
L+ 1
L+ 1
L+ 1
L+ 1
L+ 1
L+ 1
L+ 1
L+ 1
L+ 1
L+ 1
L+ 1
L+ 1
L+ 1
L+ 1
L+ 1
L+ 1
L+ 1
L+ 1
L+ 1
L+ 1
L+ 1
L+ 1
L+ 1
L+ 1
L+ 1
L+ 1
L+ 1
L+ 1
L+ 1
L+ 1
L+ 1
L+ 1
L+ 1
L+ 1
L+ 1
L+ 1
L+ 1
L= 1
L= 1
L= 1
L= 1
L= 1
L= 1
L= 1
L= 1
L= 1
L= 1
L= 1
L= 1
L= 1
L= 1
L= 1
L= 1
L= 1
L= 1
L= 1
L= 1
L= 1
L= 1
L= 1
L= 1
L= 1
L= 1
L= 1
L= 1
L= 1
L= 1
L= 1
L= 1
L= 1
L= 1
L= 1
L= 1
L= 1
L= 1
L= 1
L= 1
L= 1
L= 1
L= 1
L= 1
L= 1
L= 1
L= 1
L= 1
L= 1
L= 1
L= 1
L+ 1
L+ 1
L+ 1
L+ 1
L+ 1
L+ 1
L+ 1
L+ 1
L+ 1
L+ 1
L+ 1
L+ 1
L+ 1
L+ 1
L+ 1
L+ 1
L+ 1
L+ 1
L+ 1
L+ 1
L+ 1
L+ 1
L+ 1
L+ 1
L+ 1
L+ 1
L+ 1
L+ 1
L+ 1
L+ 1
L+ 1
L+ 1
L+ 1
L+ 1
L+ 1
L+ 1
L+ 1
L+ 1
L+ 1
L+ 1
L+ 1
L+ 1
L+ 1
L+ 1
L+ 1
L+ 1
L+ 1
L+ 1
L+ 1
L+ 1
L+ 1
L+ 1
L+ 1
L+ 1
L+ 1
L+ 1
L+ 1
L+ 1
L+ 1
L+ 1
L+ 1
L+ 1
L+ 1
L+ 1
L+ 1
L+ 1
L+ 1
L+ 1
L+ 1
L+ 1
L+ 1
L+ 1
L+ 1
L+ 1
L+ 1
L+ 1
L= 1
L= 1
L= 1
L= 1
L= 1
L= 1
L= 1
L= 1
L+ 1
L+ 1
L+ 1
L+ 1
L+ 1
L+ 1
L+ 1
L+ 1
L+ 1
L+ 1
L+ 1
L+ 1
L+ 1
L+ 1
L+ 1
L+ 1
L+ 1
L+ 1
L+ 1
L+ 1
L+ 1
L+ 1
L+ 1
L+ 1
L+ 1
L+ 1
L+ 1
L+ 1
L+ 1
L+ 1
L+ 1
L+ 1
L= 1
L= 1
L= 1
L= 1
L= 1
L= 1
L= 1
L= 1
L= 1
L= 1
L= 1
L= 1
L= 1
L= 1
L= 1
L= 1
L= 1
L= 1
L= 1
L= 1
L= 1
L= 1
L= 1
L= 1
L= 1
L= 1
L= 1
L= 1
L= 1
L= 1
L= 1
L= 1
L+ 1
L= 1
L= 1
L= 1
L= 1
L= 1
L= 1
L= 1
L= 1
L= 1
L= 1
L= 1
L= 1
L= 1
L= 1
L= 1
L= 1
EXP 3
L+ 1
L+ 1
L= 1
L= 1
L= 1
L= 1
L+ 1
L+ 1
L+ 1
L+ 1
EXP 3
L+ 1
L+ 1
L= 1
L= 1
L= 1
L= 1
L+ 1
L+ 1
L+ 1
L+ 1
L= 1
L= 1
L= 1
L= 1
L= 1
L+ 1
L+ 1
L+ 1
L+ 1
EXP 3
L+ 1
L+ 1
L= 1
L= 1
L= 1
L= 1
L+ 1
L+ 1
L+ 1
L+ 1
L= 1
L= 1
L= 1
L= 1
L= 1
L= 1
L= 1
L= 1
L+ 1
L+ 1
L+ 1
L+ 1
L+ 1
L+ 1
L= 1
L+ 1
L+ 1
L+ 1
L+ 1
L+ 1
L+ 1
L+ 1
L+ 1
L+ 1
L+ 1
L+ 1
L+ 1
L+ 1
L+ 1
L+ 1
L+ 1
L+ 1
L+ 1
L+ 1
L+ 1
L+ 1
L+ 1
L+ 1
L+ 1
L+ 1
L+ 1
L+ 1
L+ 1
L+ 1
L+ 1
L+ 1
L+ 1
L+ 1
L+ 1
L+ 1
L+ 1
L+ 1
L+ 1
L+ 1
L+ 1
L+ 1
L+ 1
L+ 1
L+ 1
L+ 1
L+ 1
L+ 1
L+ 1
L+ 1
L+ 1
L+ 1
L+ 1
L+ 1
L+ 1
L+ 1
L+ 1
L+ 1
L+ 1
L+ 1
L+ 1
L+ 1
L+ 1
L+ 1
L+ 1
L+ 1
L+ 1
L+ 1
L+ 1
L+ 1
L+ 1
L+ 1
L+ 1
L+ 1
L+ 1
L+ 1
L+ 1
L+ 1
L+ 1
L+ 1
L+ 1
L+ 1
L+ 1
L+ 1
L+ 1
L+ 1
L+ 1
L+ 1
L+ 1
L+ 1
L+ 1
L+ 1
L+ 1
L+ 1
L+ 1
L+ 1
L+ 1
L+ 1
L+ 1
L+ 1
L+ 1
L+ 1
L+ 1
L+ 1
L+ 1
L+ 1
L+ 1
L+ 1
L+ 1
L+ 1
L+ 1
L+ 1
L+ 1
L+ 1
L+ 1
L+ 1
L+ 1
L+ 1
L+ 1
L+ 1
L+ 1
L+ 1
L+ 1
L+ 1
L+ 1
L+ 1
L+ 1
L+ 1
L+ 1
L+ 1
L+ 1
L+ 1
L+ 1
L+ 1
L+ 1
L+ 1
L+ 1
L+ 1
L+ 1
L+ 1
L+ 1
L+ 1
L+ 1
L+ 1
L+ 1
L+ 1
L+ 1
L+ 1
L+ 1
L+ 1
L+ 1
L+ 1
L+ 1
L+ 1
L+ 1
L+ 1
L+ 1
L+ 1
L+ 1
L+ 1
L+ 1
L+ 1
L+ 1
L+ 1
L+ 1
L+ 1
L+ 1
L+ 1
L+ 1
L+ 1
L+ 1
L+ 1
L+ 1
L+ 1
L+ 1
L+ 1
L+ 1
L+ 1
L+ 1
L+ 1
L+ 1
L+ 1
L+ 1
L+ 1
L+ 1
L+ 1
L+ 1
L+ 1
L+ 1
L+ 1
L+ 1
L+ 1
L+ 1
L+ 1
L+ 1
L+ 1
L+ 1
L+ 1
L+ 1
L+ 1
L+ 1
L+ 1
L+ 1
L+ 1
L+ 1
L+ 1
L+ 1
L+ 1
L+ 1
L+ 1
L+ 1
L+ 1
L+ 1
L+ 1
L+ 1
L+ 1
L+ 1
L+ 1
L+ 1
L+ 1
L+ 1
L+ 1
L+ 1
L+ 1
L+ 1
L+ 1
L+ 1
L+ 1
L+ 1
L+ 1
L+ 1
L+ 1
L+ 1
L+ 1
L+ 1
L+ 1
L+ 1
L+ 1
L+ 1
L+ 1
L+ 1
L+ 1
L+ 1
L+ 1
L+ 1
L+ 1
L+ 1
L+ 1
L+ 1
L+ 1
L+ 1
L+ 1
L+ 1
L+ 1
L+ 1
L+ 1
L+ 1
L+ 1
L+ 1
L+ 1
L+ 1
L+ 1
L+ 1
L+ 1
L+ 1
L+ 1
L+ 1
L+ 1
L+ 1
L+ 1
L+ 1
L+ 1
L+ 1
L+ 1
L+ 1
L+ 1
L+ 1
L+ 1
L+ 1
L+ 1
L+ 1
L+ 1
L+ 1
L+ 1
L+ 1
L+ 1
L+ 1
L+ 1
L+ 1
L+ 1
L+ 1
L+ 1
L+ 1
L+ 1
L+ 1
L+ 1
L+ 1
L+ 1
L+ 1
L+ 1
L+ 1
L+ 1
L+ 1
L+ 1
L+ 1
L+ 1
L+ 1
L+ 1
L+ 1
L+ 1
L+ 1
L+ 1
L+ 1
L+ 1
L+ 1
L+ 1
L+ 1
L+ 1
L+ 1
L+ 1
L+ 1
L+ 1
L+ 1
L+ 1
L+ 1
L+ 1
L+ 1
L+ 1
L+ 1
L+ 1
L+ 1
L+ 1
L+ 1
L+ 1
L+ 1
L+ 1
L+ 1
L+ 1
L+ 1
L+ 1
L+ 1
L+ 1
L+ 1
L+ 1
L+ 1
L+ 1
L+ 1
L+ 1
L+ 1
L+ 1
L+ 1

OBJACOORD
1
45 -1.0

ACOORD
1421
0 0 -4.0
1 0 1.0
42 0 -1.0
47 0 1.0
359 0 -4.0
442 0 1.0
0 1 -8.0
6 1 1.0
43 1 -1.0
49 1 1.0
359 1 -8.0
447 1 1.0
0 2 -5.0
10 2 1.0
44 2 -1.0
51 2 1.0
359 2 -5.0
451 2 1.0
0 3 -8.0
22 3 1.0
45 3 -1.0
55 3 1.0
359 3 -8.0
463 3 1.0
0 4 23.0
26 4 1.0
36 4 1.0
56 4 -1.0
467 4 1.0
0 5 19.0
28 5 1.0
37 5 1.0
57 5 -1.0
469 5 1.0
0 6 -10.0
29 6 1.0
46 6 -1.0
58 6 1.0
359 6 -10.0
470 6 1.0
0 7 2.0
32 7 1.0
38 7 1.0
368 7 -1.0
473 7 1.0
0 8 3.0
33 8 1.0
39 8 1.0
369 8 -1.0
474 8 1.0
0 9 25.0
34 9 1.0
40 9 1.0
370 9 -1.0
475 9 1.0
0 10 24.0
35 10 1.0
41 10 1.0
371 10 -1.0
476 10 1.0
0 11 -6.0
89 11 148.75
129 11 175.0
212 11 35.0
256 11 10.0
296 11 6.0
328 11 -6.0
360 11 1.0
678 11 1.0
679 11 -1.0
0 12 -40.0
90 12 148.75
130 12 175.0
213 12 35.0
257 12 50.0
297 12 40.0
329 12 -40.0
360 12 1.0
680 12 1.0
681 12 -1.0
0 13 -46.0
91 13 148.75
131 13 175.0
214 13 35.0
258 13 50.0
298 13 46.0
330 13 -46.0
360 13 1.0
682 13 1.0
683 13 -1.0
0 14 -7.0
93 14 254.045833333333
133 14 175.0
216 14 35.0
220 14 61.0
260 14 40.0
300 14 7.0
332 14 -7.0
361 14 1.0
686 14 1.0
687 14 -1.0
0 15 -30.0
94 15 254.045833333333
134 15 175.0
217 15 35.0
221 15 61.0
261 15 60.0
301 15 30.0
333 15 -30.0
361 15 1.0
688 15 1.0
689 15 -1.0
0 16 -37.0
95 16 254.045833333333
135 16 175.0
218 16 35.0
222 16 61.0
262 16 60.0
302 16 37.0
334 16 -37.0
361 16 1.0
690 16 1.0
691 16 -1.0
0 17 -7.0
97 17 20.4166666666667
101 17 20.4166666666667
137 17 20.8333333333333
224 17 25.0
264 17 15.0
304 17 7.0
336 17 -7.0
362 17 1.0
694 17 1.0
695 17 -1.0
0 18 -15.0
98 18 20.4166666666667
102 18 20.4166666666667
138 18 20.8333333333333
225 18 25.0
265 18 25.0
305 18 15.0
337 18 -15.0
362 18 1.0
696 18 1.0
697 18 -1.0
0 19 -22.0
99 19 20.4166666666667
103 19 20.4166666666667
139 19 20.8333333333333
226 19 25.0
266 19 25.0
306 19 22.0
338 19 -22.0
362 19 1.0
698 19 1.0
699 19 -1.0
0 20 -11.0
105 20 18.75
141 20 20.8333333333333
228 20 25.0
268 20 15.0
308 20 11.0
340 20 -11.0
363 20 1.0
702 20 1.0
703 20 -1.0
0 21 -13.0
106 21 18.75
142 21 20.8333333333333
229 21 25.0
269 21 20.0
309 21 13.0
341 21 -13.0
363 21 1.0
704 21 1.0
705 21 -1.0
0 22 -24.0
107 22 18.75
143 22 20.8333333333333
230 22 25.0
270 22 20.0
310 22 24.0
342 22 -24.0
363 22 1.0
706 22 1.0
707 22 -1.0
0 23 -10.0
109 23 17.8125
113 23 17.8125
145 23 18.75
232 23 25.0
272 23 10.0
312 23 10.0
344 23 -10.0
364 23 1.0
710 23 1.0
711 23 -1.0
0 24 -13.0
110 24 17.8125
114 24 17.8125
146 24 18.75
233 24 25.0
273 24 20.0
313 24 13.0
345 24 -13.0
364 24 1.0
712 24 1.0
713 24 -1.0
0 25 -23.0
111 25 17.8125
115 25 17.8125
147 25 18.75
234 25 25.0
274 25 20.0
314 25 23.0
346 25 -23.0
364 25 1.0
714 25 1.0
715 25 -1.0
0 26 -9.0
117 26 66.9375
149 26 18.75
236 26 25.0
240 26 24.0
276 26 20.0
316 26 9.0
348 26 -9.0
365 26 1.0
718 26 1.0
719 26 -1.0
0 27 -30.0
118 27 66.9375
150 27 18.75
237 27 25.0
241 27 24.0
277 27 55.0
317 27 30.0
349 27 -30.0
365 27 1.0
720 27 1.0
721 27 -1.0
0 28 -39.0
119 28 66.9375
151 28 18.75
238 28 25.0
242 28 24.0
278 28 55.0
318 28 39.0
350 28 -39.0
365 28 1.0
722 28 1.0
723 28 -1.0
0 29 -8.0
121 29 94.4571428571429
153 29 60.0
244 29 24.0
248 29 30.0
280 29 25.0
320 29 8.0
352 29 -8.0
366 29 1.0
726 29 1.0
727 29 -1.0
0 30 -20.0
122 30 94.4571428571429
154 30 60.0
245 30 24.0
249 30 30.0
281 30 50.0
321 30 20.0
353 30 -20.0
366 30 1.0
728 30 1.0
729 30 -1.0
0 31 -28.0
123 31 94.4571428571429
155 31 60.0
246 31 24.0
250 31 30.0
282 31 50.0
322 31 28.0
354 31 -28.0
366 31 1.0
730 31 1.0
731 31 -1.0
0 32 -8.0
125 32 39.4285714285714
157 32 42.8571428571429
252 32 30.0
284 32 15.0
324 32 8.0
356 32 -8.0
367 32 1.0
734 32 1.0
735 32 -1.0
0 33 -15.0
126 33 39.4285714285714
158 33 42.8571428571429
253 33 30.0
285 33 35.0
325 33 15.0
357 33 -15.0
367 33 1.0
736 33 1.0
737 33 -1.0
0 34 -23.0
127 34 39.4285714285714
159 34 42.8571428571429
254 34 30.0
286 34 35.0
326 34 23.0
358 34 -23.0
367 34 1.0
738 34 1.0
739 34 -1.0
0 35 5.0
374 35 -1.0
747 35 1.0
0 36 -2.0
369 36 -1.0
430 36 1.0
752 36 1.0
753 36 -1.0
0 37 200.0
406 37 1.0
754 37 1.0
0 38 250.0
419 38 1.0
755 38 1.0
0 39 300.0
431 39 1.0
756 39 1.0
0 40 -5.0
376 40 1.0
377 40 1.0
379 40 1.0
385 40 10.0
386 40 -10.0
387 40 2.39789527279837
388 40 -2.39789527279837
438 40 1.0
439 40 1.0
440 40 1.0
441 40 1.0
779 40 1.0
780 40 -1.0
0 41 -8.0
389 41 1.0
390 41 1.0
392 41 1.0
398 41 10.0
399 41 -10.0
400 41 2.87747432735804
401 41 -2.87747432735804
438 41 1.0
439 41 1.0
440 41 1.0
441 41 1.0
781 41 1.0
782 41 -1.0
0 42 -6.0
407 42 2.87747432735804
408 42 -2.87747432735804
409 42 2.15810574551853
410 42 -2.15810574551853
439 42 -1.0
783 42 1.0
784 42 -1.0
0 43 -10.0
411 43 1.0
412 43 1.0
414 43 1.0
420 43 2.87747432735804
421 43 -2.87747432735804
422 43 2.03277599268042
423 43 -2.03277599268042
440 43 -1.0
785 43 1.0
786 43 -1.0
0 44 -6.0
432 44 2.87747432735804
433 44 -2.87747432735804
434 44 7.0
435 44 -7.0
436 44 3.5
437 44 -3.5
441 44 -1.0
787 44 1.0
788 44 -1.0
0 45 -1.0
1 46 -0.2
477 46 1.0
2 47 1.0
47 47 -1.0
59 47 1.0
200 47 1.0
443 47 1.0
2 48 -0.2
71 48 1.0
478 48 1.0
3 49 1.0
47 49 -1.0
60 49 1.0
201 49 1.0
444 49 1.0
3 50 -0.2
67 50 -1.0
73 50 1.0
479 50 1.0
4 51 1.0
48 51 1.0
59 51 -1.0
445 51 1.0
4 52 -0.2
70 52 1.0
480 52 1.0
5 53 1.0
48 53 -1.0
368 53 1.0
446 53 1.0
5 54 -0.2
481 54 1.0
6 55 -0.5
482 55 1.0
7 56 1.0
49 56 -1.0
60 56 1.0
202 56 1.0
448 56 1.0
7 57 -0.5
67 57 1.0
483 57 1.0
8 58 1.0
50 58 1.0
60 58 -1.0
449 58 1.0
8 59 -0.7
72 59 1.0
484 59 1.0
9 60 1.0
50 60 -1.0
369 60 1.0
450 60 1.0
9 61 -0.7
485 61 1.0
10 62 -1.2
486 62 1.0
11 63 1.0
51 63 -1.0
61 63 1.0
203 63 1.0
452 63 1.0
11 64 -1.2
76 64 1.0
487 64 1.0
12 65 1.0
49 65 1.0
61 65 -1.0
453 65 1.0
12 66 -0.5
74 66 1.0
488 66 1.0
13 67 1.0
50 67 1.0
61 67 -1.0
454 67 1.0
13 68 -0.7
75 68 1.0
489 68 1.0
14 69 1.0
51 69 -1.0
62 69 1.0
204 69 1.0
455 69 1.0
14 70 -1.2
78 70 1.0
490 70 1.0
15 71 1.0
52 71 1.0
62 71 -1.0
456 71 1.0
15 72 -1.2
77 72 1.0
491 72 1.0
16 73 1.0
52 73 -1.0
64 73 1.0
206 73 1.0
457 73 1.0
16 74 -1.2
68 74 -1.0
83 74 1.0
492 74 1.0
17 75 1.0
52 75 -1.0
63 75 1.0
205 75 1.0
458 75 1.0
17 76 -1.2
81 76 1.0
493 76 1.0
18 77 1.0
53 77 1.0
63 77 -1.0
459 77 1.0
18 78 -0.3
79 78 1.0
494 78 1.0
19 79 1.0
54 79 1.0
63 79 -1.0
460 79 1.0
19 80 -0.9
80 80 1.0
495 80 1.0
20 81 1.0
53 81 -1.0
370 81 1.0
461 81 1.0
20 82 -0.3
496 82 1.0
21 83 1.0
54 83 -1.0
371 83 1.0
462 83 1.0
21 84 -0.9
497 84 1.0
22 85 -0.4
498 85 1.0
23 86 1.0
55 86 -1.0
64 86 1.0
207 86 1.0
464 86 1.0
23 87 -0.4
68 87 1.0
499 87 1.0
24 88 1.0
55 88 -1.0
65 88 1.0
208 88 1.0
465 88 1.0
24 89 -0.4
69 89 -1.0
85 89 1.0
500 89 1.0
25 90 1.0
56 90 1.0
64 90 -1.0
466 90 1.0
25 91 -1.6
82 91 1.0
501 91 1.0
26 92 -1.6
502 92 1.0
27 93 1.0
57 93 1.0
65 93 -1.0
468 93 1.0
27 94 -1.1
84 94 1.0
503 94 1.0
28 95 -1.1
504 95 1.0
29 96 -0.7
505 96 1.0
30 97 1.0
58 97 -1.0
66 97 1.0
210 97 1.0
471 97 1.0
30 98 -0.7
87 98 1.0
506 98 1.0
31 99 1.0
65 99 1.0
66 99 -1.0
209 99 1.0
472 99 1.0
31 100 -0.7
69 100 1.0
86 100 1.0
507 100 1.0
32 101 -0.2
508 101 1.0
33 102 -0.7
509 102 1.0
34 103 -0.3
510 103 1.0
35 104 -0.9
511 104 1.0
59 105 -1.0
512 105 1.0
60 106 -1.0
513 106 1.0
61 107 -1.0
514 107 1.0
62 108 -1.0
515 108 1.0
63 109 -1.0
516 109 1.0
64 110 -1.0
517 110 1.0
65 111 -1.0
518 111 1.0
66 112 -1.0
519 112 1.0
70 113 -1.0
88 113 -1.0
160 113 1.0
580 113 1.0
70 114 -1.0
89 114 -1.0
161 114 1.0
581 114 1.0
70 115 -1.0
90 115 -1.0
162 115 1.0
582 115 1.0
70 116 -1.0
91 116 -1.0
163 116 1.0
583 116 1.0
71 117 -1.0
128 117 -1.0
160 117 -0.8
572 117 1.0
71 118 -1.0
129 118 -1.0
161 118 -0.85
573 118 1.0
71 119 -1.0
130 119 -1.0
162 119 -0.8
574 119 1.0
71 120 -1.0
131 120 -1.0
163 120 -0.85
575 120 1.0
72 121 -1.0
92 121 -1.0
164 121 1.0
584 121 1.0
72 122 -1.0
93 122 -1.0
165 122 1.0
585 122 1.0
72 123 -1.0
94 123 -1.0
166 123 1.0
586 123 1.0
72 124 -1.0
95 124 -1.0
167 124 1.0
587 124 1.0
73 125 -1.0
132 125 -1.0
164 125 -0.9
576 125 1.0
73 126 -1.0
133 126 -1.0
165 126 -0.95
577 126 1.0
73 127 -1.0
134 127 -1.0
166 127 -0.9
578 127 1.0
73 128 -1.0
135 128 -1.0
167 128 -0.95
579 128 1.0
74 129 -1.0
96 129 -1.0
168 129 1.0
592 129 1.0
74 130 -1.0
97 130 -1.0
169 130 1.0
593 130 1.0
74 131 -1.0
98 131 -1.0
170 131 1.0
594 131 1.0
74 132 -1.0
99 132 -1.0
171 132 1.0
595 132 1.0
75 133 -1.0
100 133 -1.0
172 133 1.0
596 133 1.0
75 134 -1.0
101 134 -1.0
173 134 1.0
597 134 1.0
75 135 -1.0
102 135 -1.0
174 135 1.0
598 135 1.0
75 136 -1.0
103 136 -1.0
175 136 1.0
599 136 1.0
76 137 -1.0
136 137 -1.0
168 137 -0.85
172 137 -0.85
588 137 1.0
76 138 -1.0
137 138 -1.0
169 138 -0.98
173 138 -0.98
589 138 1.0
76 139 -1.0
138 139 -1.0
170 139 -0.85
174 139 -0.85
590 139 1.0
76 140 -1.0
139 140 -1.0
171 140 -0.98
175 140 -0.98
591 140 1.0
77 141 -1.0
104 141 -1.0
176 141 1.0
604 141 1.0
77 142 -1.0
105 142 -1.0
177 142 1.0
605 142 1.0
77 143 -1.0
106 143 -1.0
178 143 1.0
606 143 1.0
77 144 -1.0
107 144 -1.0
179 144 1.0
607 144 1.0
78 145 -1.0
140 145 -1.0
176 145 -0.85
600 145 1.0
78 146 -1.0
141 146 -1.0
177 146 -0.9
601 146 1.0
78 147 -1.0
142 147 -1.0
178 147 -0.85
602 147 1.0
78 148 -1.0
143 148 -1.0
179 148 -0.9
603 148 1.0
79 149 -1.0
108 149 -1.0
180 149 1.0
616 149 1.0
79 150 -1.0
109 150 -1.0
181 150 1.0
617 150 1.0
79 151 -1.0
110 151 -1.0
182 151 1.0
618 151 1.0
79 152 -1.0
111 152 -1.0
183 152 1.0
619 152 1.0
80 153 -1.0
112 153 -1.0
184 153 1.0
620 153 1.0
80 154 -1.0
113 154 -1.0
185 154 1.0
621 154 1.0
80 155 -1.0
114 155 -1.0
186 155 1.0
622 155 1.0
80 156 -1.0
115 156 -1.0
187 156 1.0
623 156 1.0
81 157 -1.0
144 157 -1.0
180 157 -0.75
184 157 -0.75
612 157 1.0
81 158 -1.0
145 158 -1.0
181 158 -0.95
185 158 -0.95
613 158 1.0
81 159 -1.0
146 159 -1.0
182 159 -0.9
186 159 -0.9
614 159 1.0
81 160 -1.0
147 160 -1.0
183 160 -0.95
187 160 -0.95
615 160 1.0
82 161 -1.0
116 161 -1.0
188 161 1.0
628 161 1.0
82 162 -1.0
117 162 -1.0
189 162 1.0
629 162 1.0
82 163 -1.0
118 163 -1.0
190 163 1.0
630 163 1.0
82 164 -1.0
119 164 -1.0
191 164 1.0
631 164 1.0
83 165 -1.0
148 165 -1.0
188 165 -0.8
608 165 1.0
83 166 -1.0
149 166 -1.0
189 166 -0.85
609 166 1.0
83 167 -1.0
150 167 -1.0
190 167 -0.8
610 167 1.0
83 168 -1.0
151 168 -1.0
191 168 -0.85
611 168 1.0
84 169 -1.0
120 169 -1.0
192 169 1.0
632 169 1.0
84 170 -1.0
121 170 -1.0
193 170 1.0
633 170 1.0
84 171 -1.0
122 171 -1.0
194 171 1.0
634 171 1.0
84 172 -1.0
123 172 -1.0
195 172 1.0
635 172 1.0
85 173 -1.0
152 173 -1.0
192 173 -0.85
624 173 1.0
85 174 -1.0
153 174 -1.0
193 174 -0.95
625 174 1.0
85 175 -1.0
154 175 -1.0
194 175 -0.85
626 175 1.0
85 176 -1.0
155 176 -1.0
195 176 -0.95
627 176 1.0
86 177 -1.0
124 177 -1.0
196 177 1.0
640 177 1.0
86 178 -1.0
125 178 -1.0
197 178 1.0
641 178 1.0
86 179 -1.0
126 179 -1.0
198 179 1.0
642 179 1.0
86 180 -1.0
127 180 -1.0
199 180 1.0
643 180 1.0
87 181 -1.0
156 181 -1.0
196 181 -0.8
636 181 1.0
87 182 -1.0
157 182 -1.0
197 182 -0.92
637 182 1.0
87 183 -1.0
158 183 -1.0
198 183 -0.8
638 183 1.0
87 184 -1.0
159 184 -1.0
199 184 -0.92
639 184 1.0
88 185 148.75
128 185 175.0
211 185 35.0
255 185 10.0
360 185 1.0
676 185 1.0
677 185 -1.0
92 186 254.045833333333
132 186 175.0
215 186 35.0
219 186 61.0
259 186 40.0
361 186 1.0
684 186 1.0
685 186 -1.0
96 187 20.4166666666667
100 187 20.4166666666667
136 187 20.8333333333333
223 187 25.0
263 187 15.0
362 187 1.0
692 187 1.0
693 187 -1.0
104 188 18.75
140 188 20.8333333333333
227 188 25.0
267 188 15.0
363 188 1.0
700 188 1.0
701 188 -1.0
108 189 17.8125
112 189 17.8125
144 189 18.75
231 189 25.0
271 189 10.0
364 189 1.0
708 189 1.0
709 189 -1.0
116 190 66.9375
148 190 18.75
235 190 25.0
239 190 24.0
275 190 20.0
365 190 1.0
716 190 1.0
717 190 -1.0
120 191 94.4571428571429
152 191 60.0
243 191 24.0
247 191 30.0
279 191 25.0
366 191 1.0
724 191 1.0
725 191 -1.0
124 192 39.4285714285714
156 192 42.8571428571429
251 192 30.0
283 192 15.0
367 192 1.0
732 192 1.0
733 192 -1.0
200 193 -1.0
211 193 -1.0
255 193 -1.0
528 193 1.0
200 194 -1.0
212 194 -1.0
256 194 -1.0
529 194 1.0
200 195 -1.0
213 195 -1.0
257 195 -1.0
530 195 1.0
200 196 -1.0
214 196 -1.0
258 196 -1.0
531 196 1.0
201 197 -1.0
215 197 -1.0
259 197 -1.0
532 197 1.0
201 198 -1.0
216 198 -1.0
260 198 -1.0
533 198 1.0
201 199 -1.0
217 199 -1.0
261 199 -1.0
534 199 1.0
201 200 -1.0
218 200 -1.0
262 200 -1.0
535 200 1.0
202 201 -1.0
219 201 -1.0
259 201 -1.0
536 201 1.0
202 202 -1.0
220 202 -1.0
260 202 -1.0
537 202 1.0
202 203 -1.0
221 203 -1.0
261 203 -1.0
538 203 1.0
202 204 -1.0
222 204 -1.0
262 204 -1.0
539 204 1.0
203 205 -1.0
223 205 -1.0
263 205 -1.0
540 205 1.0
203 206 -1.0
224 206 -1.0
264 206 -1.0
541 206 1.0
203 207 -1.0
225 207 -1.0
265 207 -1.0
542 207 1.0
203 208 -1.0
226 208 -1.0
266 208 -1.0
543 208 1.0
204 209 -1.0
227 209 -1.0
267 209 -1.0
544 209 1.0
204 210 -1.0
228 210 -1.0
268 210 -1.0
545 210 1.0
204 211 -1.0
229 211 -1.0
269 211 -1.0
546 211 1.0
204 212 -1.0
230 212 -1.0
270 212 -1.0
547 212 1.0
205 213 -1.0
231 213 -1.0
271 213 -1.0
552 213 1.0
205 214 -1.0
232 214 -1.0
272 214 -1.0
553 214 1.0
205 215 -1.0
233 215 -1.0
273 215 -1.0
554 215 1.0
205 216 -1.0
234 216 -1.0
274 216 -1.0
555 216 1.0
206 217 -1.0
235 217 -1.0
275 217 -1.0
548 217 1.0
206 218 -1.0
236 218 -1.0
276 218 -1.0
549 218 1.0
206 219 -1.0
237 219 -1.0
277 219 -1.0
550 219 1.0
206 220 -1.0
238 220 -1.0
278 220 -1.0
551 220 1.0
207 221 -1.0
239 221 -1.0
275 221 -1.0
556 221 1.0
207 222 -1.0
240 222 -1.0
276 222 -1.0
557 222 1.0
207 223 -1.0
241 223 -1.0
277 223 -1.0
558 223 1.0
207 224 -1.0
242 224 -1.0
278 224 -1.0
559 224 1.0
208 225 -1.0
243 225 -1.0
279 225 -1.0
560 225 1.0
208 226 -1.0
244 226 -1.0
280 226 -1.0
561 226 1.0
208 227 -1.0
245 227 -1.0
281 227 -1.0
562 227 1.0
208 228 -1.0
246 228 -1.0
282 228 -1.0
563 228 1.0
209 229 -1.0
247 229 -1.0
279 229 -1.0
568 229 1.0
209 230 -1.0
248 230 -1.0
280 230 -1.0
569 230 1.0
209 231 -1.0
249 231 -1.0
281 231 -1.0
570 231 1.0
209 232 -1.0
250 232 -1.0
282 232 -1.0
571 232 1.0
210 233 -1.0
251 233 -1.0
283 233 -1.0
564 233 1.0
210 234 -1.0
252 234 -1.0
284 234 -1.0
565 234 1.0
210 235 -1.0
253 235 -1.0
285 235 -1.0
566 235 1.0
210 236 -1.0
254 236 -1.0
286 236 -1.0
567 236 1.0
287 237 1.0
359 237 -1.0
520 237 1.0
287 238 -1.0
295 238 -1.0
327 238 1.0
644 238 1.0
287 239 -1.0
296 239 -1.0
328 239 1.0
645 239 1.0
287 240 -1.0
297 240 -1.0
329 240 1.0
646 240 1.0
287 241 -1.0
298 241 -1.0
330 241 1.0
647 241 1.0
288 242 1.0
359 242 -1.0
521 242 1.0
288 243 -1.0
299 243 -1.0
331 243 1.0
648 243 1.0
288 244 -1.0
300 244 -1.0
332 244 1.0
649 244 1.0
288 245 -1.0
301 245 -1.0
333 245 1.0
650 245 1.0
288 246 -1.0
302 246 -1.0
334 246 1.0
651 246 1.0
289 247 1.0
359 247 -1.0
522 247 1.0
289 248 -1.0
303 248 -1.0
335 248 1.0
652 248 1.0
289 249 -1.0
304 249 -1.0
336 249 1.0
653 249 1.0
289 250 -1.0
305 250 -1.0
337 250 1.0
654 250 1.0
289 251 -1.0
306 251 -1.0
338 251 1.0
655 251 1.0
290 252 1.0
359 252 -1.0
523 252 1.0
290 253 -1.0
307 253 -1.0
339 253 1.0
656 253 1.0
290 254 -1.0
308 254 -1.0
340 254 1.0
657 254 1.0
290 255 -1.0
309 255 -1.0
341 255 1.0
658 255 1.0
290 256 -1.0
310 256 -1.0
342 256 1.0
659 256 1.0
291 257 1.0
359 257 -1.0
524 257 1.0
291 258 -1.0
311 258 -1.0
343 258 1.0
660 258 1.0
291 259 -1.0
312 259 -1.0
344 259 1.0
661 259 1.0
291 260 -1.0
313 260 -1.0
345 260 1.0
662 260 1.0
291 261 -1.0
314 261 -1.0
346 261 1.0
663 261 1.0
292 262 1.0
359 262 -1.0
525 262 1.0
292 263 -1.0
315 263 -1.0
347 263 1.0
664 263 1.0
292 264 -1.0
316 264 -1.0
348 264 1.0
665 264 1.0
292 265 -1.0
317 265 -1.0
349 265 1.0
666 265 1.0
292 266 -1.0
318 266 -1.0
350 266 1.0
667 266 1.0
293 267 1.0
359 267 -1.0
526 267 1.0
293 268 -1.0
319 268 -1.0
351 268 1.0
668 268 1.0
293 269 -1.0
320 269 -1.0
352 269 1.0
669 269 1.0
293 270 -1.0
321 270 -1.0
353 270 1.0
670 270 1.0
293 271 -1.0
322 271 -1.0
354 271 1.0
671 271 1.0
294 272 1.0
359 272 -1.0
527 272 1.0
294 273 -1.0
323 273 -1.0
355 273 1.0
672 273 1.0
294 274 -1.0
324 274 -1.0
356 274 1.0
673 274 1.0
294 275 -1.0
325 275 -1.0
357 275 1.0
674 275 1.0
294 276 -1.0
326 276 -1.0
358 276 1.0
675 276 1.0
368 277 -1.0
372 277 1.0
740 277 1.0
741 277 -1.0
372 278 -1.0
383 278 1.0
742 278 1.0
372 279 -1.0
396 279 1.0
743 279 1.0
373 280 -1.0
384 280 1.0
744 280 1.0
373 281 -1.0
397 281 1.0
745 281 1.0
373 282 1.0
374 282 1.0
746 282 1.0
374 283 -1.0
375 283 1.0
748 283 1.0
375 284 -1.0
405 284 1.0
749 284 1.0
375 285 -1.0
418 285 1.0
750 285 1.0
375 286 -1.0
429 286 1.0
751 286 1.0
378 287 -1.0
380 287 -1.0
376 288 1.0
379 288 1.0
383 288 -1.0
385 288 -1.0
757 288 1.0
380 289 -1.0
384 289 -1.0
387 289 -1.0
761 289 1.0
381 290 1.0
383 290 -1.0
386 290 -1.0
758 290 1.0
382 291 1.0
384 291 -1.0
388 291 -1.0
762 291 1.0
391 292 -1.0
393 292 -1.2
389 293 1.0
392 293 1.0
396 293 -1.0
398 293 -1.0
759 293 1.0
393 294 -1.0
397 294 -1.0
400 294 -1.0
763 294 1.0
394 295 1.0
396 295 -1.0
399 295 -1.0
760 295 1.0
395 296 1.0
397 296 -1.0
401 296 -1.0
764 296 1.0
402 297 -0.75
405 297 -1.0
407 297 -1.0
765 297 1.0
402 298 1.0
406 298 -1.0
409 298 -1.0
773 298 1.0
403 299 1.0
405 299 -1.0
408 299 -1.0
766 299 1.0
404 300 1.0
406 300 -1.0
410 300 -1.0
774 300 1.0
413 301 -1.0
415 301 -1.5
411 302 1.0
414 302 1.0
418 302 -1.0
420 302 -1.0
767 302 1.0
415 303 -1.0
419 303 -1.0
422 303 -1.0
775 303 1.0
416 304 1.0
418 304 -1.0
421 304 -1.0
768 304 1.0
417 305 1.0
419 305 -1.0
423 305 -1.0
776 305 1.0
424 306 -1.0
429 306 -1.0
432 306 -1.0
769 306 1.0
424 307 1.0
425 307 1.0
431 307 -1.0
436 307 -1.0
777 307 1.0
425 308 -0.5
430 308 -1.0
434 308 -1.0
771 308 1.0
426 309 1.0
429 309 -1.0
433 309 -1.0
770 309 1.0
427 310 1.0
430 310 -1.0
435 310 -1.0
772 310 1.0
428 311 1.0
431 311 -1.0
437 311 -1.0
778 311 1.0

BCOORD
71
36 -0.4
37 -0.3
38 -0.2
39 -0.5
40 -0.2
41 -0.3
42 35.0
43 36.0
44 25.0
45 24.0
46 30.0
359 4000.0
360 -1.0
361 -1.0
362 -1.0
363 -1.0
364 -1.0
365 -1.0
366 -1.0
367 -1.0
386 10.0
388 2.39789527279837
399 10.0
401 2.87747432735804
408 2.87747432735804
410 2.15810574551853
421 2.87747432735804
423 2.03277599268042
433 2.87747432735804
435 7.0
437 3.5
438 -1.0
677 1.0
679 1.0
681 1.0
683 1.0
685 1.0
687 1.0
689 1.0
691 1.0
693 1.0
695 1.0
697 1.0
699 1.0
701 1.0
703 1.0
705 1.0
707 1.0
709 1.0
711 1.0
713 1.0
715 1.0
717 1.0
719 1.0
721 1.0
723 1.0
725 1.0
727 1.0
729 1.0
731 1.0
733 1.0
735 1.0
737 1.0
739 1.0
741 10.0
753 7.0
780 1.0
782 1.0
784 1.0
786 1.0
788 1.0
