benchmark/outputs/rsyn0805h.cbf.txt
instance rsyn0805h.cbf
ran at: 2019-01-18T18:53:00.309


reading instance and constructing model...
took 0.006402445 seconds

solving model...

finding initial iterate
initial iterate found
starting iteration

 iter        p_obj        d_obj   abs_gap   rel_gap     p_inf     d_inf       tau       kap        mu
    0   2.8782e+03  -5.9769e+03  5.82e+02       NaN  7.70e+01  6.84e+00  1.00e+00  1.00e+00  1.00e+00
    1   2.8217e+03  -6.0191e+03  4.94e+02       NaN  7.69e+01  6.83e+00  8.49e-01  9.98e-01  8.48e-01
    2   2.7704e+03  -6.0547e+03  4.19e+02       NaN  7.68e+01  6.82e+00  7.22e-01  9.97e-01  7.19e-01
    3   2.7271e+03  -6.0809e+03  3.55e+02       NaN  7.66e+01  6.80e+00  6.13e-01  9.95e-01  6.10e-01
    4   2.6913e+03  -6.0981e+03  3.01e+02       NaN  7.65e+01  6.79e+00  5.21e-01  9.93e-01  5.17e-01
    5   2.6667e+03  -6.1072e+03  2.69e+02       NaN  7.64e+01  6.78e+00  4.66e-01  9.91e-01  4.62e-01
    6   2.6435e+03  -6.1148e+03  2.49e+02       NaN  7.62e+01  6.77e+00  4.32e-01  9.89e-01  4.28e-01
    7   2.6084e+03  -6.1254e+03  2.30e+02       NaN  7.60e+01  6.75e+00  4.01e-01  9.86e-01  3.96e-01
    8   2.5585e+03  -6.1378e+03  2.13e+02       NaN  7.57e+01  6.72e+00  3.73e-01  9.82e-01  3.66e-01
    9   2.4994e+03  -6.1472e+03  1.97e+02       NaN  7.53e+01  6.68e+00  3.47e-01  9.76e-01  3.39e-01
   10   2.4362e+03  -6.1499e+03  1.83e+02       NaN  7.47e+01  6.63e+00  3.24e-01  9.69e-01  3.14e-01
   11   2.3409e+03  -6.1398e+03  1.63e+02       NaN  7.38e+01  6.55e+00  2.93e-01  9.58e-01  2.80e-01
   12   2.2428e+03  -6.1117e+03  1.46e+02       NaN  7.27e+01  6.45e+00  2.66e-01  9.43e-01  2.50e-01
   13   2.1412e+03  -6.0658e+03  1.30e+02       NaN  7.14e+01  6.34e+00  2.42e-01  9.27e-01  2.24e-01
   14   2.0356e+03  -6.0024e+03  1.16e+02       NaN  7.00e+01  6.21e+00  2.20e-01  9.08e-01  2.00e-01
   15   1.8723e+03  -5.8789e+03  9.87e+01       NaN  6.75e+01  5.99e+00  1.94e-01  8.75e-01  1.70e-01
   16   1.6988e+03  -5.7199e+03  8.37e+01       NaN  6.46e+01  5.73e+00  1.72e-01  8.38e-01  1.44e-01
   17   1.5163e+03  -5.5280e+03  7.10e+01       NaN  6.13e+01  5.44e+00  1.53e-01  7.96e-01  1.22e-01
   18   1.3275e+03  -5.3059e+03  6.02e+01       NaN  5.78e+01  5.13e+00  1.38e-01  7.49e-01  1.03e-01
   19   1.1361e+03  -5.0577e+03  5.10e+01       NaN  5.39e+01  4.79e+00  1.25e-01  7.00e-01  8.77e-02
   20   9.4546e+02  -4.7890e+03  4.33e+01       NaN  4.99e+01  4.43e+00  1.15e-01  6.48e-01  7.44e-02
   21   7.5803e+02  -4.5075e+03  3.67e+01       NaN  4.59e+01  4.07e+00  1.06e-01  5.95e-01  6.31e-02
   22   5.7597e+02  -4.2214e+03  3.11e+01       NaN  4.18e+01  3.71e+00  9.87e-02  5.42e-01  5.35e-02
   23   4.0172e+02  -3.9381e+03  2.64e+01       NaN  3.78e+01  3.36e+00  9.25e-02  4.90e-01  4.53e-02
   24   2.3803e+02  -3.6630e+03  2.24e+01       NaN  3.40e+01  3.02e+00  8.72e-02  4.41e-01  3.85e-02
   25   8.7159e+01  -3.3991e+03  1.90e+01       NaN  3.04e+01  2.70e+00  8.28e-02  3.94e-01  3.26e-02
   26  -5.0590e+01  -3.1477e+03  1.61e+01  3.18e-01  2.70e+01  2.40e+00  7.90e-02  3.50e-01  2.76e-02
   27  -1.7773e+02  -2.9108e+03  1.36e+01  7.68e-02  2.38e+01  2.11e+00  7.59e-02  3.09e-01  2.34e-02
   28  -2.9685e+02  -2.6926e+03  1.16e+01  3.90e-02  2.09e+01  1.85e+00  7.34e-02  2.71e-01  1.99e-02
   29  -4.0846e+02  -2.4967e+03  9.81e+00  2.40e-02  1.82e+01  1.62e+00  7.15e-02  2.36e-01  1.69e-02
   30  -5.1203e+02  -2.3241e+03  8.32e+00  1.62e-02  1.58e+01  1.40e+00  6.98e-02  2.05e-01  1.43e-02
   31  -6.0721e+02  -2.1739e+03  7.06e+00  1.16e-02  1.37e+01  1.21e+00  6.85e-02  1.77e-01  1.21e-02
   32  -6.9396e+02  -2.0445e+03  5.98e+00  8.62e-03  1.18e+01  1.04e+00  6.74e-02  1.53e-01  1.03e-02
   33  -7.7250e+02  -1.9339e+03  5.07e+00  6.57e-03  1.01e+01  8.98e-01  6.64e-02  1.31e-01  8.72e-03
   34  -8.4326e+02  -1.8399e+03  4.30e+00  5.10e-03  8.69e+00  7.71e-01  6.56e-02  1.13e-01  7.39e-03
   35  -9.0673e+02  -1.7605e+03  3.65e+00  4.02e-03  7.44e+00  6.60e-01  6.50e-02  9.65e-02  6.27e-03
   36  -9.6348e+02  -1.6937e+03  3.09e+00  3.21e-03  6.36e+00  5.65e-01  6.44e-02  8.25e-02  5.32e-03
   37  -1.0140e+03  -1.6379e+03  2.62e+00  2.59e-03  5.44e+00  4.83e-01  6.40e-02  7.05e-02  4.51e-03
   38  -1.0589e+03  -1.5912e+03  2.22e+00  2.10e-03  4.64e+00  4.12e-01  6.36e-02  6.01e-02  3.82e-03
   39  -1.0987e+03  -1.5524e+03  1.89e+00  1.72e-03  3.95e+00  3.51e-01  6.32e-02  5.13e-02  3.24e-03
   40  -1.1338e+03  -1.5202e+03  1.60e+00  1.41e-03  3.37e+00  2.99e-01  6.30e-02  4.37e-02  2.75e-03
   41  -1.1646e+03  -1.4935e+03  1.36e+00  1.16e-03  2.87e+00  2.54e-01  6.27e-02  3.72e-02  2.33e-03
   42  -1.1916e+03  -1.4713e+03  1.15e+00  9.65e-04  2.44e+00  2.16e-01  6.25e-02  3.16e-02  1.98e-03
   43  -1.2151e+03  -1.4529e+03  9.75e-01  8.03e-04  2.07e+00  1.84e-01  6.24e-02  2.69e-02  1.68e-03
   44  -1.2356e+03  -1.4376e+03  8.27e-01  6.69e-04  1.76e+00  1.56e-01  6.23e-02  2.28e-02  1.42e-03
   45  -1.2534e+03  -1.4250e+03  7.01e-01  5.60e-04  1.50e+00  1.33e-01  6.22e-02  1.94e-02  1.21e-03
   46  -1.2687e+03  -1.4144e+03  5.95e-01  4.69e-04  1.27e+00  1.13e-01  6.21e-02  1.65e-02  1.02e-03
   47  -1.2820e+03  -1.4057e+03  5.04e-01  3.93e-04  1.08e+00  9.57e-02  6.20e-02  1.40e-02  8.67e-04
   48  -1.2935e+03  -1.3984e+03  4.28e-01  3.31e-04  9.15e-01  8.12e-02  6.20e-02  1.19e-02  7.35e-04
   49  -1.3033e+03  -1.3924e+03  3.63e-01  2.78e-04  7.77e-01  6.89e-02  6.19e-02  1.01e-02  6.23e-04
   50  -1.3154e+03  -1.3853e+03  2.84e-01  2.16e-04  6.09e-01  5.40e-02  6.19e-02  7.89e-03  4.88e-04
   51  -1.3251e+03  -1.3798e+03  2.22e-01  1.68e-04  4.77e-01  4.23e-02  6.18e-02  6.18e-03  3.82e-04
   52  -1.3328e+03  -1.3757e+03  1.74e-01  1.31e-04  3.73e-01  3.31e-02  6.18e-02  4.84e-03  2.99e-04
   53  -1.3389e+03  -1.3725e+03  1.36e-01  1.02e-04  2.92e-01  2.60e-02  6.17e-02  3.79e-03  2.34e-04
   54  -1.3438e+03  -1.3701e+03  1.07e-01  7.93e-05  2.29e-01  2.03e-02  6.17e-02  2.97e-03  1.83e-04
   55  -1.3476e+03  -1.3681e+03  8.35e-02  6.19e-05  1.79e-01  1.59e-02  6.17e-02  2.32e-03  1.43e-04
   56  -1.3505e+03  -1.3666e+03  6.53e-02  4.84e-05  1.40e-01  1.25e-02  6.17e-02  1.82e-03  1.12e-04
   57  -1.3528e+03  -1.3655e+03  5.12e-02  3.78e-05  1.10e-01  9.76e-03  6.17e-02  1.42e-03  8.79e-05
   58  -1.3546e+03  -1.3645e+03  4.00e-02  2.96e-05  8.61e-02  7.64e-03  6.17e-02  1.12e-03  6.88e-05
   59  -1.3560e+03  -1.3638e+03  3.13e-02  2.31e-05  6.74e-02  5.98e-03  6.17e-02  8.73e-04  5.39e-05
   60  -1.3571e+03  -1.3632e+03  2.45e-02  1.81e-05  5.28e-02  4.68e-03  6.17e-02  6.84e-04  4.22e-05
   61  -1.3580e+03  -1.3627e+03  1.92e-02  1.41e-05  4.13e-02  3.67e-03  6.17e-02  5.35e-04  3.30e-05
   62  -1.3589e+03  -1.3622e+03  1.33e-02  9.75e-06  2.85e-02  2.53e-03  6.17e-02  3.69e-04  2.28e-05
   63  -1.3596e+03  -1.3619e+03  9.14e-03  6.72e-06  1.97e-02  1.75e-03  6.17e-02  2.55e-04  1.57e-05
   64  -1.3603e+03  -1.3615e+03  5.09e-03  3.74e-06  1.10e-02  9.72e-04  6.17e-02  1.42e-04  8.75e-06
   65  -1.3606e+03  -1.3613e+03  2.83e-03  2.08e-06  6.10e-03  5.41e-04  6.17e-02  7.90e-05  4.87e-06
   66  -1.3608e+03  -1.3612e+03  1.58e-03  1.16e-06  3.40e-03  3.01e-04  6.17e-02  4.40e-05  2.71e-06
   67  -1.3609e+03  -1.3611e+03  8.79e-04  6.46e-07  1.89e-03  1.68e-04  6.17e-02  2.45e-05  1.51e-06
   68  -1.3610e+03  -1.3611e+03  4.89e-04  3.60e-07  1.05e-03  9.35e-05  6.17e-02  1.36e-05  8.41e-07
   69  -1.3610e+03  -1.3611e+03  2.73e-04  2.00e-07  5.86e-04  5.20e-05  6.17e-02  7.59e-06  4.68e-07
   70  -1.3610e+03  -1.3611e+03  1.00e-04  7.35e-08  2.15e-04  1.91e-05  6.17e-02  2.79e-06  1.72e-07
   71  -1.3611e+03  -1.3611e+03  3.67e-05  2.70e-08  7.90e-05  7.01e-06  6.17e-02  1.02e-06  6.31e-08
   72  -1.3611e+03  -1.3611e+03  1.35e-05  9.89e-09  2.90e-05  2.57e-06  6.17e-02  3.75e-07  2.31e-08
   73  -1.3611e+03  -1.3611e+03  1.25e-06  9.17e-10  3.41e-06  4.36e-05  5.01e-02  4.28e-08  2.14e-09
   74  -1.3611e+03  -1.3611e+03  1.19e-07  8.77e-11  3.27e-07  4.17e-06  5.01e-02  4.10e-09  2.05e-10
   75  -1.3611e+03  -1.3611e+03  1.14e-08  8.39e-12  3.12e-08  3.98e-07  5.01e-02  3.92e-10  1.96e-11
   76  -1.3611e+03  -1.3611e+03  1.09e-09  8.02e-13  2.99e-09  3.81e-08  5.01e-02  3.75e-11  1.88e-12
optimal solution found; terminating

status is Optimal after 76 iterations and 0.231 seconds


Hypatia finished
took 0.249941585 seconds
memory allocation data:
Base.GC_Diff
  allocd: Int64 17029006
  malloc: Int64 279
  realloc: Int64 15
  poolalloc: Int64 237634
  bigalloc: Int64 168
  freecall: Int64 255
  total_time: Int64 8236968
  pause: Int64 1
  full_sweep: Int64 0

